num_offers = 40;
num_halls = 10;
start=[25,27,43,22,53,41,4,37,24,7,32,59,34,75,3,17,4,5,72,1,34,79,2,1,58,27,4,94,27,26,33,22,16,51,86,10,6,32,41,20];
end=[53,49,46,39,80,74,41,73,50,31,83,60,76,86,21,99,92,57,88,29,46,85,59,91,77,96,84,98,52,27,59,25,78,56,90,46,86,57,71,46];
price=[374,1496,290,1400,797,1245,2691,1731,541,694,3281,23,2490,537,1146,5533,8866,1279,1427,1906,148,660,4006,2394,1715,6430,1501,175,2003,64,2253,49,5987,584,398,3518,1542,2377,2612,1377];
requirement=[918,474,469,813,870,343,947,713,741,305,206,722,998,209,608,994,513,274,757,671,271,759,876,897,825,636,770,495,912,518,969,674,697,797,337,888,716,581,903,944];
capacity=[214,456,237,217,718,856,481,968,310,947];
